# Solution for model GasLib-40
# Objective value = 2.2292541693298062e+01
loadshed[innode_1] 0
loadshed[innode_2] 0
loadshed[innode_3] 0
loadshed[innode_4] 0
loadshed[innode_5] 0
loadshed[innode_6] 0
loadshed[innode_7] 0
loadshed[innode_8] 0
loadshed[source_1] -1.8385185282802996e-01
loadshed[source_2] -1.6342872624596660e-02
loadshed[source_3] 3.4120619058920343e-01
loadshed[sink_1] 0
loadshed[sink_2] 0
loadshed[sink_3] 0
loadshed[sink_4] 0
loadshed[sink_5] 0
loadshed[sink_6] 0
loadshed[sink_7] 0
loadshed[sink_8] 0
loadshed[sink_9] 0
loadshed[sink_10] 0
loadshed[sink_11] 0
loadshed[sink_12] 1
loadshed[sink_13] 0
loadshed[sink_14] 0
loadshed[sink_15] 0
loadshed[sink_16] 0
loadshed[sink_17] 0
loadshed[sink_18] 0
loadshed[sink_19] 0
loadshed[sink_20] 0
loadshed[sink_21] 3.6311082965389424e-01
loadshed[sink_22] 0
loadshed[sink_23] 0
loadshed[sink_24] 0
loadshed[sink_25] 0
loadshed[sink_26] 0
loadshed[sink_27] 0
loadshed[sink_28] 0
loadshed[sink_29] 0
flow[source_1,sink_3] 1.8715546826132015e+02
flow[innode_1,sink_16] 1.6354166666666970e+01
flow[innode_6,sink_13] 1.0330270338633980e+01
flow[sink_13,sink_14] -6.0238963280326878e+00
flow[sink_14,sink_10] -2.2378062994699349e+01
flow[sink_25,sink_26] 1.5749682215850169e+02
flow[sink_26,sink_9] 8.1770833333333655e+01
flow[sink_9,sink_18] 6.5416666666666671e+01
flow[sink_26,sink_4] 5.9371822158501345e+01
flow[sink_4,sink_20] 0
flow[sink_18,sink_6] 4.9062500000000313e+01
flow[sink_25,innode_8] -1.5444713492798380e+02
flow[sink_6,sink_7] 0
flow[sink_6,sink_22] 3.2708333333333641e+01
flow[sink_7,sink_24] 2.6769958306701959e+01
flow[sink_22,sink_1] 1.6354166666666970e+01
flow[sink_24,sink_21] 1.0415791640035273e+01
flow[sink_21,sink_12] 0
flow[sink_7,sink_5] -4.3124124973368623e+01
flow[sink_5,sink_17] -5.9478291640035295e+01
flow[sink_17,sink_4] -4.3017655491834809e+01
flow[sink_17,sink_8] -3.2814802814867292e+01
flow[sink_3,sink_23] 16.3541666666697
flow[sink_8,sink_20] -4.9168969481533964e+01
flow[sink_25,sink_20] 6.5523136148200535e+01
flow[sink_25,sink_15] -9.5257260384019190e+01
flow[sink_15,sink_29] -6.2285799254110493e+01
flow[sink_29,sink_28] 1.6354166666667879e+01
flow[sink_29,sink_2] 6.5679794463242047e+01
flow[sink_2,sink_15] 4.9325627796575382e+01
flow[sink_29,innode_7] -1.6067392705068710e+02
flow[innode_4,sink_19] 3.9747930117700207e+01
flow[sink_19,innode_3] 7.1440562994699732e+01
flow[innode_4,innode_5] 6.4400966210333010e+01
flow[sink_27,innode_5] -6.4400966210333010e+01
flow[sink_27,sink_19] 4.8046799543666346e+01
flow[sink_10,sink_11] 3.2708333333333641e+01
flow[sink_10,innode_2] 0
flow[sink_10,innode_3] -7.1440562994699732e+01
flow[innode_6,sink_25] -1.0330270338633980e+01
flow[sink_11,innode_1] 1.6354166666666970e+01
flow[sink_19,innode_2] 0
flow[source_3,innode_4] 1.0414889632803322e+02
flow[source_2,innode_7] 1.6067392705068710e+02
flow[sink_3,innode_8] 1.5444713492798380e+02
pressure[innode_1] 75.2895616072542
pressure[innode_2] 7.9402960072628787e+01
pressure[innode_3] 7.9244763035643189e+01
pressure[innode_4] 81.01325
pressure[innode_5] 8.0968951619567065e+01
pressure[innode_6] 7.4428980735702908e+01
pressure[innode_7] 81.01325
pressure[innode_8] 8.0387660765582723e+01
pressure[source_1] 81.01325
pressure[source_2] 81.01325
pressure[source_3] 81.01325
pressure[sink_1] 5.2664214210276995e+01
pressure[sink_2] 7.5052108572882361e+01
pressure[sink_3] 8.0387660765582723e+01
pressure[sink_4] 5.5787884913466691e+01
pressure[sink_5] 4.9713189161160727e+01
pressure[sink_6] 5.4765291820664366e+01
pressure[sink_7] 3.1778202815892136e+01
pressure[sink_8] 5.5382079727869360e+01
pressure[sink_9] 5.8442376624122652e+01
pressure[sink_10] 7.5441262914857745e+01
pressure[sink_11] 75.2895616072542
pressure[sink_12] 1.01325
pressure[sink_13] 7.4372031681674571e+01
pressure[sink_14] 7.4382811957276090e+01
pressure[sink_15] 7.4891071269319809e+01
pressure[sink_16] 7.4267911772436520e+01
pressure[sink_17] 5.4143891966903084e+01
pressure[sink_18] 5.6075406648923995e+01
pressure[sink_19] 7.9402960072628787e+01
pressure[sink_20] 5.8808465424187617e+01
pressure[sink_21] 1.01325
pressure[sink_22] 53.727983352632
pressure[sink_23] 8.0222942753922936e+01
pressure[sink_24] 1.1285952149888048e+00
pressure[sink_25] 7.4428980735702908e+01
pressure[sink_26] 63.336572043834
pressure[sink_27] 8.0434542600211472e+01
pressure[sink_28] 76.420569617163
pressure[sink_29] 7.6715851890780172e+01
interdiction[source_1,sink_3] 0
interdiction[innode_1,sink_16] 0
interdiction[innode_6,sink_13] 0
interdiction[sink_13,sink_14] 0
interdiction[sink_14,sink_10] 0
interdiction[sink_25,sink_26] 0
interdiction[sink_26,sink_9] 0
interdiction[sink_9,sink_18] 0
interdiction[sink_26,sink_4] 0
interdiction[sink_4,sink_20] 1
interdiction[sink_18,sink_6] 0
interdiction[sink_25,innode_8] 0
interdiction[sink_6,sink_7] 1
interdiction[sink_6,sink_22] 0
interdiction[sink_7,sink_24] 0
interdiction[sink_22,sink_1] 0
interdiction[sink_24,sink_21] 0
interdiction[sink_21,sink_12] 0
interdiction[sink_7,sink_5] 0
interdiction[sink_5,sink_17] 0
interdiction[sink_17,sink_4] 0
interdiction[sink_17,sink_8] 0
interdiction[sink_3,sink_23] 0
interdiction[sink_8,sink_20] 0
interdiction[sink_25,sink_20] 0
interdiction[sink_25,sink_15] 0
interdiction[sink_15,sink_29] 0
interdiction[sink_29,sink_28] 0
interdiction[sink_29,sink_2] 0
interdiction[sink_2,sink_15] 0
interdiction[sink_29,innode_7] 0
interdiction[innode_4,sink_19] 0
interdiction[sink_19,innode_3] 0
interdiction[innode_4,innode_5] 0
interdiction[sink_27,innode_5] 0
interdiction[sink_27,sink_19] 0
interdiction[sink_10,sink_11] 0
interdiction[sink_10,innode_2] 1
interdiction[sink_10,innode_3] 0
interdiction[innode_6,sink_25] 0
interdiction[sink_11,innode_1] 0
interdiction[sink_19,innode_2] 0
interdiction[source_3,innode_4] 0
interdiction[source_2,innode_7] 0
interdiction[sink_3,innode_8] 0
WCcheckFlow[source_1,sink_3] 39
WCcheckFlow[innode_1,sink_16] 1
WCcheckFlow[innode_6,sink_13] 13
WCcheckFlow[sink_13,sink_14] 12
WCcheckFlow[sink_14,sink_10] 11
WCcheckFlow[sink_25,sink_26] 15
WCcheckFlow[sink_26,sink_9] 5
WCcheckFlow[sink_9,sink_18] 4
WCcheckFlow[sink_26,sink_4] 9
WCcheckFlow[sink_4,sink_20] 0
WCcheckFlow[sink_18,sink_6] 3
WCcheckFlow[sink_25,innode_8] -36
WCcheckFlow[sink_6,sink_7] 0
WCcheckFlow[sink_6,sink_22] 2
WCcheckFlow[sink_7,sink_24] 3
WCcheckFlow[sink_22,sink_1] 1
WCcheckFlow[sink_24,sink_21] 2
WCcheckFlow[sink_21,sink_12] 1
WCcheckFlow[sink_7,sink_5] -4
WCcheckFlow[sink_5,sink_17] -5
WCcheckFlow[sink_17,sink_4] -8
WCcheckFlow[sink_17,sink_8] 2
WCcheckFlow[sink_3,sink_23] 1
WCcheckFlow[sink_8,sink_20] 1
WCcheckFlow[sink_25,sink_20] 0
WCcheckFlow[sink_25,sink_15] 6
WCcheckFlow[sink_15,sink_29] 5
WCcheckFlow[sink_29,sink_28] 1
WCcheckFlow[sink_29,sink_2] 1
WCcheckFlow[sink_2,sink_15] 0
WCcheckFlow[sink_29,innode_7] 2
WCcheckFlow[innode_4,sink_19] -4
WCcheckFlow[sink_19,innode_3] -6
WCcheckFlow[innode_4,innode_5] 2
WCcheckFlow[sink_27,innode_5] -1
WCcheckFlow[sink_27,sink_19] 0
WCcheckFlow[sink_10,sink_11] 3
WCcheckFlow[sink_10,innode_2] 0
WCcheckFlow[sink_10,innode_3] 7
WCcheckFlow[innode_6,sink_25] -14
WCcheckFlow[sink_11,innode_1] 2
WCcheckFlow[sink_19,innode_2] 1
WCcheckFlow[source_3,innode_4] -1
WCcheckFlow[source_2,innode_7] -1
WCcheckFlow[sink_3,innode_8] 37
